c description: Random 4-CNF over 5 variables and 6 clauses
c generator: CNFgen (0.9.2)
c copyright: (C) 2012-2022 Massimo Lauria <massimo.lauria@uniroma1.it>
c url: https://massimolauria.net/cnfgen
c command line: cnfgen randkcnf 4 5 6
c
p cnf 5 6
1 3 4 5 0
-1 -2 4 -5 0
-1 2 -4 5 0
1 -2 4 -5 0
-1 -3 4 5 0
1 -3 4 -5 0
